p cnf 894 2818
a 2 3 4 5 6 7 8 9 10 11 15 20 22 24 25 26 29 31 33 34 36 38 40 41 43 45 47 49 51 53 55 58 59 66 68 72 76 78 80 84 91 96 101 107 108 112 115 116 125 130 133 134 141 142 146 150 151 154 158 162 164 166 168 170 171 175 179 181 185 189 194 196 200 202 203 0
e 1 12 13 14 16 17 18 19 21 23 27 28 30 32 35 37 39 42 44 46 48 50 52 54 56 57 60 61 62 63 64 65 67 69 70 71 73 74 75 77 79 81 82 83 85 86 87 88 89 90 92 93 94 95 97 98 99 100 102 103 104 105 106 109 110 111 113 114 117 118 119 120 121 122 123 124 126 127 128 129 131 132 135 136 137 138 139 140 143 144 145 147 148 149 152 153 155 156 157 159 160 161 163 165 167 169 172 173 174 176 177 178 180 182 183 184 186 187 188 190 191 192 193 195 197 198 199 201 204 205 206 207 208 209 210 211 212 213 214 215 216 217 218 219 220 221 222 223 224 225 226 227 228 229 230 231 232 233 234 235 236 237 238 239 240 241 242 243 244 245 246 247 248 249 250 251 252 253 254 255 256 257 258 259 260 261 262 263 264 265 266 267 268 269 270 271 272 273 274 275 276 277 278 279 280 281 282 283 284 285 286 287 288 289 290 291 292 293 294 295 296 297 298 299 300 301 302 303 304 305 306 307 308 309 310 311 312 313 314 315 316 317 318 319 320 321 322 323 324 325 326 327 328 329 330 331 332 333 334 335 336 337 338 339 340 341 342 343 344 345 346 347 348 349 350 351 352 353 354 355 356 357 358 359 360 361 362 363 364 365 366 367 368 369 370 371 372 373 374 375 376 377 378 379 380 381 382 383 384 385 386 387 388 389 390 391 392 393 394 395 396 397 398 399 400 401 402 403 404 405 406 407 408 409 410 411 412 413 414 415 416 417 418 419 420 421 422 423 424 425 426 427 428 429 430 431 432 433 434 435 436 437 438 439 440 441 442 443 444 445 446 447 448 449 450 451 452 453 454 455 456 457 458 459 460 461 462 463 464 465 466 467 468 469 470 471 472 473 474 475 476 477 478 479 480 481 482 483 484 485 486 487 488 489 490 491 492 493 494 495 496 497 498 499 500 501 502 503 504 505 506 507 508 509 510 511 512 513 514 515 516 517 518 519 520 521 522 523 524 525 526 527 528 529 530 531 532 533 534 535 536 537 538 539 540 541 542 543 544 545 546 547 548 549 550 551 552 553 554 555 556 557 558 559 560 561 562 563 564 565 566 567 568 569 570 571 572 573 574 575 576 577 578 579 580 581 582 583 584 585 586 587 588 589 590 591 592 593 594 595 596 597 598 599 600 601 602 603 604 605 606 607 608 609 610 611 612 613 614 615 616 617 618 619 620 621 622 623 624 625 626 627 628 629 630 631 632 633 634 635 636 637 638 639 640 641 642 643 644 645 646 647 648 649 650 651 652 653 654 655 656 657 658 659 660 661 662 663 664 665 666 667 668 669 670 671 672 673 674 675 676 677 678 679 680 681 682 683 684 685 686 687 688 689 690 691 692 693 694 695 696 697 698 699 700 701 702 703 704 705 706 707 708 709 710 711 712 713 714 715 716 717 718 719 720 721 722 723 724 725 726 727 728 729 730 731 732 733 734 735 736 737 738 739 740 741 742 743 744 745 746 747 748 749 750 751 752 753 754 755 756 757 758 759 760 761 762 763 764 765 766 767 768 769 770 771 772 773 774 775 776 777 778 779 780 781 782 783 784 785 786 787 788 789 790 791 792 793 794 795 796 797 798 799 800 801 802 803 804 805 806 807 808 809 810 811 812 813 814 815 816 817 818 819 820 821 822 823 824 825 826 827 828 829 830 831 832 833 834 835 836 837 838 839 840 841 842 843 844 845 846 847 848 849 850 851 852 853 854 855 856 857 858 859 860 861 862 863 864 865 866 867 868 869 870 871 872 873 874 875 876 877 878 879 880 881 882 883 884 885 886 887 888 889 890 891 892 893 894 0
1 0
10 -12 0
11 -12 0
-10 -11 12 0
10 -13 0
-11 -13 0
-10 11 13 0
10 14 0
-12 14 0
-13 14 0
-10 12 13 -14 0
-15 16 0
15 16 0
9 -17 0
14 -17 0
16 -17 0
-9 -14 -16 17 0
-9 -18 0
14 -18 0
9 -14 18 0
-17 19 0
-18 19 0
17 18 -19 0
-20 21 0
20 21 0
-22 23 0
22 23 0
25 -27 0
-26 -27 0
-25 26 27 0
25 28 0
-27 28 0
-25 27 -28 0
-29 30 0
29 30 0
30 -32 0
31 -32 0
-30 -31 32 0
-34 35 0
34 35 0
35 -37 0
-36 -37 0
-35 36 37 0
35 -39 0
36 -39 0
38 -39 0
-35 -36 -38 39 0
35 -42 0
36 -42 0
-38 -42 0
40 -42 0
41 -42 0
-35 -36 38 -40 -41 42 0
35 -44 0
36 -44 0
-38 -44 0
40 -44 0
-41 -44 0
-43 -44 0
-35 -36 38 -40 41 43 44 0
35 -46 0
36 -46 0
-38 -46 0
-40 -46 0
-45 -46 0
-35 -36 38 40 45 46 0
35 -48 0
36 -48 0
-38 -48 0
-40 -48 0
45 -48 0
47 -48 0
-35 -36 38 40 -45 -47 48 0
35 -50 0
36 -50 0
-38 -50 0
40 -50 0
-41 -50 0
43 -50 0
49 -50 0
-35 -36 38 -40 41 -43 -49 50 0
35 -52 0
36 -52 0
-38 -52 0
40 -52 0
-41 -52 0
43 -52 0
-49 -52 0
51 -52 0
-35 -36 38 -40 41 -43 49 -51 52 0
-53 54 0
53 54 0
35 -56 0
36 -56 0
-38 -56 0
-40 -56 0
45 -56 0
-47 -56 0
54 -56 0
55 -56 0
-35 -36 38 40 -45 47 -54 -55 56 0
35 -57 0
36 -57 0
-38 -57 0
-40 -57 0
45 -57 0
-47 -57 0
54 -57 0
-55 -57 0
-35 -36 38 40 -45 47 -54 55 57 0
58 -60 0
59 -60 0
-58 -59 60 0
58 -61 0
-59 -61 0
-58 59 61 0
58 62 0
-60 62 0
-61 62 0
-58 60 61 -62 0
35 -63 0
36 -63 0
-38 -63 0
40 -63 0
-41 -63 0
43 -63 0
-49 -63 0
-51 -63 0
62 -63 0
-35 -36 38 -40 41 -43 49 51 -62 63 0
-37 64 0
-39 64 0
-42 64 0
-44 64 0
-46 64 0
-48 64 0
-50 64 0
-52 64 0
-56 64 0
-57 64 0
-63 64 0
37 39 42 44 46 48 50 52 56 57 63 -64 0
30 -65 0
-31 -65 0
-33 -65 0
64 -65 0
-30 31 33 -64 65 0
30 -67 0
-31 -67 0
33 -67 0
-66 -67 0
-30 31 -33 66 67 0
30 -69 0
-31 -69 0
33 -69 0
66 -69 0
-68 -69 0
-30 31 -33 -66 68 69 0
30 -70 0
-31 -70 0
33 -70 0
66 -70 0
68 -70 0
-30 31 -33 -66 -68 70 0
-65 71 0
-67 71 0
-69 71 0
-70 71 0
65 67 69 70 -71 0
71 -73 0
72 -73 0
-71 -72 73 0
71 -74 0
-72 -74 0
-71 72 74 0
-32 75 0
-73 75 0
-74 75 0
32 73 74 -75 0
-76 77 0
76 77 0
24 -79 0
28 -79 0
75 -79 0
77 -79 0
78 -79 0
-24 -28 -75 -77 -78 79 0
-80 81 0
80 81 0
24 -82 0
28 -82 0
75 -82 0
77 -82 0
-78 -82 0
81 -82 0
-24 -28 -75 -77 78 -81 82 0
-79 83 0
-82 83 0
79 82 -83 0
83 -85 0
84 -85 0
-83 -84 85 0
83 -86 0
-84 -86 0
-83 84 86 0
24 87 0
-85 87 0
-86 87 0
-24 85 86 -87 0
8 -88 0
19 -88 0
21 -88 0
23 -88 0
87 -88 0
-8 -19 -21 -23 -87 88 0
-8 -89 0
19 -89 0
21 -89 0
23 -89 0
8 -19 -21 -23 89 0
-88 90 0
-89 90 0
88 89 -90 0
91 92 0
-91 92 0
7 -93 0
90 -93 0
92 -93 0
-7 -90 -92 93 0
-7 -94 0
90 -94 0
7 -90 94 0
-93 95 0
-94 95 0
93 94 -95 0
96 97 0
-96 97 0
6 -98 0
95 -98 0
97 -98 0
-6 -95 -97 98 0
-6 -99 0
95 -99 0
6 -95 99 0
-98 100 0
-99 100 0
98 99 -100 0
101 102 0
-101 102 0
5 -103 0
100 -103 0
102 -103 0
-5 -100 -102 103 0
-5 -104 0
100 -104 0
5 -100 104 0
-103 105 0
-104 105 0
103 104 -105 0
4 -106 0
105 -106 0
-4 -105 106 0
108 -109 0
100 -109 0
102 -109 0
-108 -100 -102 109 0
-108 -110 0
100 -110 0
108 -100 110 0
-109 111 0
-110 111 0
109 110 -111 0
112 113 0
-112 113 0
107 -114 0
111 -114 0
113 -114 0
-107 -111 -113 114 0
116 117 0
-116 117 0
115 -118 0
111 -118 0
117 -118 0
-115 -111 -117 118 0
-115 -119 0
111 -119 0
115 -111 119 0
-118 120 0
-119 120 0
118 119 -120 0
-107 -121 0
120 -121 0
107 -120 121 0
-114 122 0
-121 122 0
114 121 -122 0
-4 -123 0
122 -123 0
4 -122 123 0
-106 124 0
-123 124 0
106 123 -124 0
125 126 0
-125 126 0
3 -127 0
124 -127 0
126 -127 0
-3 -124 -126 127 0
-3 -128 0
124 -128 0
3 -124 128 0
-127 129 0
-128 129 0
127 128 -129 0
130 131 0
-130 131 0
2 -132 0
129 -132 0
131 -132 0
-2 -129 -131 132 0
134 135 0
-134 135 0
133 -136 0
129 -136 0
135 -136 0
-133 -129 -135 136 0
-133 -137 0
129 -137 0
133 -129 137 0
-136 138 0
-137 138 0
136 137 -138 0
-2 -139 0
138 -139 0
2 -138 139 0
-132 140 0
-139 140 0
132 139 -140 0
141 -143 0
142 -143 0
-141 -142 143 0
141 -144 0
-142 -144 0
-141 142 144 0
-143 145 0
-144 145 0
143 144 -145 0
145 -147 0
146 -147 0
-145 -146 147 0
145 -148 0
-146 -148 0
-145 146 148 0
-147 149 0
-148 149 0
147 148 -149 0
149 -152 0
-150 -152 0
151 -152 0
-149 150 -151 152 0
149 -153 0
-150 -153 0
-151 -153 0
-149 150 151 153 0
149 -155 0
150 -155 0
154 -155 0
-149 -150 -154 155 0
149 -156 0
150 -156 0
-154 -156 0
-149 -150 154 156 0
-152 157 0
-153 157 0
-155 157 0
-156 157 0
152 153 155 156 -157 0
157 -159 0
158 -159 0
-157 -158 159 0
157 -160 0
-158 -160 0
-157 158 160 0
-159 161 0
-160 161 0
159 160 -161 0
161 -163 0
162 -163 0
-161 -162 163 0
161 -165 0
-162 -165 0
164 -165 0
-161 162 -164 165 0
161 -167 0
-162 -167 0
-164 -167 0
166 -167 0
-161 162 164 -166 167 0
161 -169 0
-162 -169 0
-164 -169 0
-166 -169 0
168 -169 0
-161 162 164 166 -168 169 0
161 -172 0
-162 -172 0
-164 -172 0
-166 -172 0
-168 -172 0
170 -172 0
171 -172 0
-161 162 164 166 168 -170 -171 172 0
161 -173 0
-162 -173 0
-164 -173 0
-166 -173 0
-168 -173 0
170 -173 0
-171 -173 0
-161 162 164 166 168 -170 171 173 0
-172 174 0
-173 174 0
172 173 -174 0
174 -176 0
175 -176 0
-174 -175 176 0
174 -177 0
-175 -177 0
-174 175 177 0
-176 178 0
-177 178 0
176 177 -178 0
178 -180 0
179 -180 0
-178 -179 180 0
161 -182 0
-162 -182 0
-164 -182 0
-166 -182 0
-168 -182 0
-170 -182 0
181 -182 0
-161 162 164 166 168 170 -181 182 0
161 -183 0
-162 -183 0
-164 -183 0
-166 -183 0
-168 -183 0
-170 -183 0
-181 -183 0
-161 162 164 166 168 170 181 183 0
-182 184 0
-183 184 0
182 183 -184 0
184 -186 0
185 -186 0
-184 -185 186 0
184 -187 0
-185 -187 0
-184 185 187 0
-186 188 0
-187 188 0
186 187 -188 0
188 -190 0
189 -190 0
-188 -189 190 0
178 -191 0
-179 -191 0
-178 179 191 0
188 -192 0
-189 -192 0
-188 189 192 0
-180 193 0
-190 193 0
-191 193 0
-192 193 0
180 190 191 192 -193 0
193 -195 0
-194 -195 0
-193 194 195 0
193 -197 0
194 -197 0
196 -197 0
-193 -194 -196 197 0
193 -198 0
194 -198 0
-196 -198 0
-193 -194 196 198 0
141 199 0
-163 199 0
-165 199 0
-167 199 0
-169 199 0
-195 199 0
-197 199 0
-198 199 0
-141 163 165 167 169 195 197 198 -199 0
-200 201 0
200 201 0
-203 204 0
203 204 0
202 -205 0
204 -205 0
-202 -204 205 0
202 206 0
-205 206 0
-202 205 -206 0
140 -207 0
199 -207 0
201 -207 0
206 -207 0
-140 -199 -201 -206 207 0
-15 208 0
15 208 0
9 -209 0
208 -209 0
-9 -208 209 0
-209 210 0
9 210 0
209 -9 -210 0
210 -211 0
-24 -211 0
-210 24 211 0
210 -212 0
30 -212 0
31 -212 0
-210 -30 -31 212 0
210 -213 0
30 -213 0
-31 -213 0
33 -213 0
66 -213 0
-68 -213 0
-210 -30 31 -33 -66 68 213 0
210 -214 0
30 -214 0
-31 -214 0
33 -214 0
66 -214 0
68 -214 0
-210 -30 31 -33 -66 -68 214 0
210 -215 0
30 -215 0
-31 -215 0
33 -215 0
-66 -215 0
-210 -30 31 -33 66 215 0
210 -216 0
34 -216 0
-210 -34 216 0
210 -217 0
-34 -217 0
-210 34 217 0
-216 218 0
-217 218 0
216 217 -218 0
-37 219 0
-39 219 0
-42 219 0
-44 219 0
-46 219 0
-48 219 0
-50 219 0
-52 219 0
37 39 42 44 46 48 50 52 -219 0
218 -220 0
219 -220 0
-218 -219 220 0
218 -221 0
35 -221 0
36 -221 0
-38 -221 0
40 -221 0
-41 -221 0
43 -221 0
-49 -221 0
-51 -221 0
62 -221 0
-218 -35 -36 38 -40 41 -43 49 51 -62 221 0
-56 222 0
-57 222 0
56 57 -222 0
218 -223 0
222 -223 0
-218 -222 223 0
-220 224 0
-221 224 0
-223 224 0
220 221 223 -224 0
224 -225 0
30 -225 0
-31 -225 0
-33 -225 0
64 -225 0
-224 -30 31 33 -64 225 0
-213 226 0
-214 226 0
-215 226 0
-225 226 0
213 214 215 225 -226 0
226 -227 0
71 -227 0
72 -227 0
-226 -71 -72 227 0
226 -228 0
71 -228 0
-72 -228 0
-226 -71 72 228 0
-212 229 0
-227 229 0
-228 229 0
212 227 228 -229 0
229 -230 0
24 -230 0
28 -230 0
75 -230 0
77 -230 0
78 -230 0
-229 -24 -28 -75 -77 -78 230 0
229 -231 0
24 -231 0
28 -231 0
75 -231 0
77 -231 0
-78 -231 0
81 -231 0
-229 -24 -28 -75 -77 78 -81 231 0
-230 232 0
-231 232 0
230 231 -232 0
-85 233 0
-86 233 0
85 86 -233 0
232 -234 0
233 -234 0
-232 -233 234 0
-211 235 0
-234 235 0
211 234 -235 0
8 -236 0
235 -236 0
-8 -235 236 0
-8 -237 0
210 -237 0
8 -210 237 0
-236 238 0
-237 238 0
236 237 -238 0
238 -239 0
-91 -239 0
-238 91 239 0
238 -240 0
91 -240 0
-238 -91 240 0
-239 241 0
-240 241 0
239 240 -241 0
7 -242 0
241 -242 0
-7 -241 242 0
-7 -243 0
238 -243 0
7 -238 243 0
-242 244 0
-243 244 0
242 243 -244 0
244 -245 0
-96 -245 0
-244 96 245 0
244 -246 0
96 -246 0
-244 -96 246 0
-245 247 0
-246 247 0
245 246 -247 0
6 -248 0
247 -248 0
-6 -247 248 0
-6 -249 0
244 -249 0
6 -244 249 0
-248 250 0
-249 250 0
248 249 -250 0
250 -251 0
-101 -251 0
-250 101 251 0
250 -252 0
101 -252 0
-250 -101 252 0
-251 253 0
-252 253 0
251 252 -253 0
5 -254 0
253 -254 0
-5 -253 254 0
-5 -255 0
250 -255 0
5 -250 255 0
-254 256 0
-255 256 0
254 255 -256 0
4 -257 0
256 -257 0
-4 -256 257 0
108 -258 0
253 -258 0
-108 -253 258 0
-108 -259 0
250 -259 0
108 -250 259 0
-258 260 0
-259 260 0
258 259 -260 0
260 -261 0
-112 -261 0
-260 112 261 0
260 -262 0
112 -262 0
-260 -112 262 0
-261 263 0
-262 263 0
261 262 -263 0
107 -264 0
263 -264 0
-107 -263 264 0
260 -265 0
-116 -265 0
-260 116 265 0
260 -266 0
116 -266 0
-260 -116 266 0
-265 267 0
-266 267 0
265 266 -267 0
115 -268 0
267 -268 0
-115 -267 268 0
-115 -269 0
260 -269 0
115 -260 269 0
-268 270 0
-269 270 0
268 269 -270 0
-107 -271 0
270 -271 0
107 -270 271 0
-264 272 0
-271 272 0
264 271 -272 0
-4 -273 0
272 -273 0
4 -272 273 0
-257 274 0
-273 274 0
257 273 -274 0
274 -275 0
-125 -275 0
-274 125 275 0
274 -276 0
125 -276 0
-274 -125 276 0
-275 277 0
-276 277 0
275 276 -277 0
3 -278 0
277 -278 0
-3 -277 278 0
-3 -279 0
274 -279 0
3 -274 279 0
-278 280 0
-279 280 0
278 279 -280 0
280 -281 0
-130 -281 0
-280 130 281 0
280 -282 0
130 -282 0
-280 -130 282 0
-281 283 0
-282 283 0
281 282 -283 0
2 -284 0
283 -284 0
-2 -283 284 0
280 -285 0
-134 -285 0
-280 134 285 0
280 -286 0
134 -286 0
-280 -134 286 0
-285 287 0
-286 287 0
285 286 -287 0
133 -288 0
287 -288 0
-133 -287 288 0
-133 -289 0
280 -289 0
133 -280 289 0
-288 290 0
-289 290 0
288 289 -290 0
-2 -291 0
290 -291 0
2 -290 291 0
-284 292 0
-291 292 0
284 291 -292 0
292 -293 0
-141 -293 0
-292 141 293 0
292 -294 0
141 -294 0
142 -294 0
-292 -141 -142 294 0
292 -295 0
141 -295 0
-142 -295 0
-292 -141 142 295 0
-294 296 0
-295 296 0
294 295 -296 0
296 -297 0
145 -297 0
146 -297 0
-296 -145 -146 297 0
296 -298 0
145 -298 0
-146 -298 0
-296 -145 146 298 0
-297 299 0
-298 299 0
297 298 -299 0
299 -300 0
157 -300 0
158 -300 0
-299 -157 -158 300 0
299 -301 0
157 -301 0
-158 -301 0
-299 -157 158 301 0
-300 302 0
-301 302 0
300 301 -302 0
-163 303 0
-165 303 0
-167 303 0
-169 303 0
163 165 167 169 -303 0
302 -304 0
303 -304 0
-302 -303 304 0
302 -305 0
161 -305 0
-162 -305 0
-164 -305 0
-166 -305 0
-168 -305 0
-170 -305 0
181 -305 0
-302 -161 162 164 166 168 170 -181 305 0
302 -306 0
161 -306 0
-162 -306 0
-164 -306 0
-166 -306 0
-168 -306 0
-170 -306 0
-181 -306 0
-302 -161 162 164 166 168 170 181 306 0
-305 307 0
-306 307 0
305 306 -307 0
307 -308 0
184 -308 0
185 -308 0
-307 -184 -185 308 0
307 -309 0
184 -309 0
-185 -309 0
-307 -184 185 309 0
-308 310 0
-309 310 0
308 309 -310 0
310 -311 0
188 -311 0
189 -311 0
-310 -188 -189 311 0
310 -312 0
188 -312 0
-189 -312 0
-310 -188 189 312 0
302 -313 0
161 -313 0
-162 -313 0
-164 -313 0
-166 -313 0
-168 -313 0
170 -313 0
171 -313 0
-302 -161 162 164 166 168 -170 -171 313 0
302 -314 0
161 -314 0
-162 -314 0
-164 -314 0
-166 -314 0
-168 -314 0
170 -314 0
-171 -314 0
-302 -161 162 164 166 168 -170 171 314 0
-313 315 0
-314 315 0
313 314 -315 0
315 -316 0
174 -316 0
175 -316 0
-315 -174 -175 316 0
315 -317 0
174 -317 0
-175 -317 0
-315 -174 175 317 0
-316 318 0
-317 318 0
316 317 -318 0
318 -319 0
178 -319 0
179 -319 0
-318 -178 -179 319 0
318 -320 0
178 -320 0
-179 -320 0
-318 -178 179 320 0
-311 321 0
-312 321 0
-319 321 0
-320 321 0
311 312 319 320 -321 0
-197 322 0
-198 322 0
197 198 -322 0
-195 323 0
-322 323 0
195 322 -323 0
321 -324 0
323 -324 0
-321 -323 324 0
-293 325 0
-304 325 0
-324 325 0
293 304 324 -325 0
325 -326 0
202 -326 0
204 -326 0
-325 -202 -204 326 0
325 -327 0
-202 -327 0
-325 202 327 0
-326 328 0
-327 328 0
326 327 -328 0
-15 329 0
15 329 0
9 -330 0
329 -330 0
-9 -329 330 0
-330 331 0
9 331 0
330 -9 -331 0
331 -332 0
-24 -332 0
-331 24 332 0
331 -333 0
30 -333 0
31 -333 0
-331 -30 -31 333 0
331 -334 0
30 -334 0
-31 -334 0
33 -334 0
66 -334 0
-68 -334 0
-331 -30 31 -33 -66 68 334 0
331 -335 0
30 -335 0
-31 -335 0
33 -335 0
66 -335 0
68 -335 0
-331 -30 31 -33 -66 -68 335 0
331 -336 0
30 -336 0
-31 -336 0
33 -336 0
-66 -336 0
-331 -30 31 -33 66 336 0
331 -337 0
34 -337 0
-331 -34 337 0
331 -338 0
-34 -338 0
-331 34 338 0
-337 339 0
-338 339 0
337 338 -339 0
-37 340 0
-39 340 0
-42 340 0
-44 340 0
-46 340 0
-48 340 0
-50 340 0
-52 340 0
37 39 42 44 46 48 50 52 -340 0
339 -341 0
340 -341 0
-339 -340 341 0
339 -342 0
35 -342 0
36 -342 0
-38 -342 0
40 -342 0
-41 -342 0
43 -342 0
-49 -342 0
-51 -342 0
62 -342 0
-339 -35 -36 38 -40 41 -43 49 51 -62 342 0
339 -343 0
222 -343 0
-339 -222 343 0
-341 344 0
-342 344 0
-343 344 0
341 342 343 -344 0
344 -345 0
30 -345 0
-31 -345 0
-33 -345 0
64 -345 0
-344 -30 31 33 -64 345 0
-334 346 0
-335 346 0
-336 346 0
-345 346 0
334 335 336 345 -346 0
346 -347 0
71 -347 0
72 -347 0
-346 -71 -72 347 0
346 -348 0
71 -348 0
-72 -348 0
-346 -71 72 348 0
-333 349 0
-347 349 0
-348 349 0
333 347 348 -349 0
349 -350 0
24 -350 0
28 -350 0
75 -350 0
77 -350 0
78 -350 0
-349 -24 -28 -75 -77 -78 350 0
349 -351 0
24 -351 0
28 -351 0
75 -351 0
77 -351 0
-78 -351 0
81 -351 0
-349 -24 -28 -75 -77 78 -81 351 0
-350 352 0
-351 352 0
350 351 -352 0
352 -353 0
233 -353 0
-352 -233 353 0
-332 354 0
-353 354 0
332 353 -354 0
8 -355 0
354 -355 0
-8 -354 355 0
-8 -356 0
331 -356 0
8 -331 356 0
-355 357 0
-356 357 0
355 356 -357 0
357 -358 0
-91 -358 0
-357 91 358 0
357 -359 0
91 -359 0
-357 -91 359 0
-358 360 0
-359 360 0
358 359 -360 0
7 -361 0
360 -361 0
-7 -360 361 0
-7 -362 0
357 -362 0
7 -357 362 0
-361 363 0
-362 363 0
361 362 -363 0
363 -364 0
-96 -364 0
-363 96 364 0
363 -365 0
96 -365 0
-363 -96 365 0
-364 366 0
-365 366 0
364 365 -366 0
6 -367 0
366 -367 0
-6 -366 367 0
-6 -368 0
363 -368 0
6 -363 368 0
-367 369 0
-368 369 0
367 368 -369 0
369 -370 0
-101 -370 0
-369 101 370 0
369 -371 0
101 -371 0
-369 -101 371 0
-370 372 0
-371 372 0
370 371 -372 0
5 -373 0
372 -373 0
-5 -372 373 0
-5 -374 0
369 -374 0
5 -369 374 0
-373 375 0
-374 375 0
373 374 -375 0
4 -376 0
375 -376 0
-4 -375 376 0
108 -377 0
372 -377 0
-108 -372 377 0
-108 -378 0
369 -378 0
108 -369 378 0
-377 379 0
-378 379 0
377 378 -379 0
379 -380 0
-112 -380 0
-379 112 380 0
379 -381 0
112 -381 0
-379 -112 381 0
-380 382 0
-381 382 0
380 381 -382 0
107 -383 0
382 -383 0
-107 -382 383 0
379 -384 0
-116 -384 0
-379 116 384 0
379 -385 0
116 -385 0
-379 -116 385 0
-384 386 0
-385 386 0
384 385 -386 0
115 -387 0
386 -387 0
-115 -386 387 0
-115 -388 0
379 -388 0
115 -379 388 0
-387 389 0
-388 389 0
387 388 -389 0
-107 -390 0
389 -390 0
107 -389 390 0
-383 391 0
-390 391 0
383 390 -391 0
-4 -392 0
391 -392 0
4 -391 392 0
-376 393 0
-392 393 0
376 392 -393 0
393 -394 0
-125 -394 0
-393 125 394 0
393 -395 0
125 -395 0
-393 -125 395 0
-394 396 0
-395 396 0
394 395 -396 0
3 -397 0
396 -397 0
-3 -396 397 0
-3 -398 0
393 -398 0
3 -393 398 0
-397 399 0
-398 399 0
397 398 -399 0
399 -400 0
-130 -400 0
-399 130 400 0
399 -401 0
130 -401 0
-399 -130 401 0
-400 402 0
-401 402 0
400 401 -402 0
2 -403 0
402 -403 0
-2 -402 403 0
399 -404 0
-134 -404 0
-399 134 404 0
399 -405 0
134 -405 0
-399 -134 405 0
-404 406 0
-405 406 0
404 405 -406 0
133 -407 0
406 -407 0
-133 -406 407 0
-133 -408 0
399 -408 0
133 -399 408 0
-407 409 0
-408 409 0
407 408 -409 0
-2 -410 0
409 -410 0
2 -409 410 0
-403 411 0
-410 411 0
403 410 -411 0
411 -412 0
-141 -412 0
-411 141 412 0
411 -413 0
141 -413 0
142 -413 0
-411 -141 -142 413 0
411 -414 0
141 -414 0
-142 -414 0
-411 -141 142 414 0
-413 415 0
-414 415 0
413 414 -415 0
415 -416 0
145 -416 0
146 -416 0
-415 -145 -146 416 0
415 -417 0
145 -417 0
-146 -417 0
-415 -145 146 417 0
-416 418 0
-417 418 0
416 417 -418 0
418 -419 0
157 -419 0
158 -419 0
-418 -157 -158 419 0
418 -420 0
157 -420 0
-158 -420 0
-418 -157 158 420 0
-419 421 0
-420 421 0
419 420 -421 0
-163 422 0
-165 422 0
-167 422 0
-169 422 0
163 165 167 169 -422 0
421 -423 0
422 -423 0
-421 -422 423 0
421 -424 0
161 -424 0
-162 -424 0
-164 -424 0
-166 -424 0
-168 -424 0
-170 -424 0
181 -424 0
-421 -161 162 164 166 168 170 -181 424 0
421 -425 0
161 -425 0
-162 -425 0
-164 -425 0
-166 -425 0
-168 -425 0
-170 -425 0
-181 -425 0
-421 -161 162 164 166 168 170 181 425 0
-424 426 0
-425 426 0
424 425 -426 0
426 -427 0
184 -427 0
185 -427 0
-426 -184 -185 427 0
426 -428 0
184 -428 0
-185 -428 0
-426 -184 185 428 0
-427 429 0
-428 429 0
427 428 -429 0
429 -430 0
188 -430 0
189 -430 0
-429 -188 -189 430 0
429 -431 0
188 -431 0
-189 -431 0
-429 -188 189 431 0
421 -432 0
161 -432 0
-162 -432 0
-164 -432 0
-166 -432 0
-168 -432 0
170 -432 0
171 -432 0
-421 -161 162 164 166 168 -170 -171 432 0
421 -433 0
161 -433 0
-162 -433 0
-164 -433 0
-166 -433 0
-168 -433 0
170 -433 0
-171 -433 0
-421 -161 162 164 166 168 -170 171 433 0
-432 434 0
-433 434 0
432 433 -434 0
434 -435 0
174 -435 0
175 -435 0
-434 -174 -175 435 0
434 -436 0
174 -436 0
-175 -436 0
-434 -174 175 436 0
-435 437 0
-436 437 0
435 436 -437 0
437 -438 0
178 -438 0
179 -438 0
-437 -178 -179 438 0
437 -439 0
178 -439 0
-179 -439 0
-437 -178 179 439 0
-430 440 0
-431 440 0
-438 440 0
-439 440 0
430 431 438 439 -440 0
-195 441 0
-322 441 0
195 322 -441 0
440 -442 0
441 -442 0
-440 -441 442 0
-412 443 0
-423 443 0
-442 443 0
412 423 442 -443 0
443 -444 0
202 -444 0
204 -444 0
-443 -202 -204 444 0
443 -445 0
-202 -445 0
-443 202 445 0
-444 446 0
-445 446 0
444 445 -446 0
455 -457 0
456 -457 0
-455 -456 457 0
455 -458 0
-456 -458 0
-455 456 458 0
455 459 0
-457 459 0
-458 459 0
-455 457 458 -459 0
-460 461 0
460 461 0
454 -462 0
459 -462 0
461 -462 0
-454 -459 -461 462 0
-454 -463 0
459 -463 0
454 -459 463 0
-462 464 0
-463 464 0
462 463 -464 0
-465 466 0
465 466 0
-467 468 0
467 468 0
470 -472 0
-471 -472 0
-470 471 472 0
470 473 0
-472 473 0
-470 472 -473 0
-474 475 0
474 475 0
475 -477 0
476 -477 0
-475 -476 477 0
-479 480 0
479 480 0
480 -482 0
-481 -482 0
-480 481 482 0
480 -484 0
481 -484 0
483 -484 0
-480 -481 -483 484 0
480 -487 0
481 -487 0
-483 -487 0
485 -487 0
486 -487 0
-480 -481 483 -485 -486 487 0
480 -489 0
481 -489 0
-483 -489 0
485 -489 0
-486 -489 0
-488 -489 0
-480 -481 483 -485 486 488 489 0
480 -491 0
481 -491 0
-483 -491 0
-485 -491 0
-490 -491 0
-480 -481 483 485 490 491 0
480 -493 0
481 -493 0
-483 -493 0
-485 -493 0
490 -493 0
492 -493 0
-480 -481 483 485 -490 -492 493 0
480 -495 0
481 -495 0
-483 -495 0
485 -495 0
-486 -495 0
488 -495 0
494 -495 0
-480 -481 483 -485 486 -488 -494 495 0
480 -497 0
481 -497 0
-483 -497 0
485 -497 0
-486 -497 0
488 -497 0
-494 -497 0
496 -497 0
-480 -481 483 -485 486 -488 494 -496 497 0
-498 499 0
498 499 0
480 -501 0
481 -501 0
-483 -501 0
-485 -501 0
490 -501 0
-492 -501 0
499 -501 0
500 -501 0
-480 -481 483 485 -490 492 -499 -500 501 0
480 -502 0
481 -502 0
-483 -502 0
-485 -502 0
490 -502 0
-492 -502 0
499 -502 0
-500 -502 0
-480 -481 483 485 -490 492 -499 500 502 0
503 -505 0
504 -505 0
-503 -504 505 0
503 -506 0
-504 -506 0
-503 504 506 0
503 507 0
-505 507 0
-506 507 0
-503 505 506 -507 0
480 -508 0
481 -508 0
-483 -508 0
485 -508 0
-486 -508 0
488 -508 0
-494 -508 0
-496 -508 0
507 -508 0
-480 -481 483 -485 486 -488 494 496 -507 508 0
-482 509 0
-484 509 0
-487 509 0
-489 509 0
-491 509 0
-493 509 0
-495 509 0
-497 509 0
-501 509 0
-502 509 0
-508 509 0
482 484 487 489 491 493 495 497 501 502 508 -509 0
475 -510 0
-476 -510 0
-478 -510 0
509 -510 0
-475 476 478 -509 510 0
475 -512 0
-476 -512 0
478 -512 0
-511 -512 0
-475 476 -478 511 512 0
475 -514 0
-476 -514 0
478 -514 0
511 -514 0
-513 -514 0
-475 476 -478 -511 513 514 0
475 -515 0
-476 -515 0
478 -515 0
511 -515 0
513 -515 0
-475 476 -478 -511 -513 515 0
-510 516 0
-512 516 0
-514 516 0
-515 516 0
510 512 514 515 -516 0
516 -518 0
517 -518 0
-516 -517 518 0
516 -519 0
-517 -519 0
-516 517 519 0
-477 520 0
-518 520 0
-519 520 0
477 518 519 -520 0
-521 522 0
521 522 0
469 -524 0
473 -524 0
520 -524 0
522 -524 0
523 -524 0
-469 -473 -520 -522 -523 524 0
-525 526 0
525 526 0
469 -527 0
473 -527 0
520 -527 0
522 -527 0
-523 -527 0
526 -527 0
-469 -473 -520 -522 523 -526 527 0
-524 528 0
-527 528 0
524 527 -528 0
528 -530 0
529 -530 0
-528 -529 530 0
528 -531 0
-529 -531 0
-528 529 531 0
469 532 0
-530 532 0
-531 532 0
-469 530 531 -532 0
453 -533 0
464 -533 0
466 -533 0
468 -533 0
532 -533 0
-453 -464 -466 -468 -532 533 0
-453 -534 0
464 -534 0
466 -534 0
468 -534 0
453 -464 -466 -468 534 0
-533 535 0
-534 535 0
533 534 -535 0
536 537 0
-536 537 0
452 -538 0
535 -538 0
537 -538 0
-452 -535 -537 538 0
-452 -539 0
535 -539 0
452 -535 539 0
-538 540 0
-539 540 0
538 539 -540 0
541 542 0
-541 542 0
451 -543 0
540 -543 0
542 -543 0
-451 -540 -542 543 0
-451 -544 0
540 -544 0
451 -540 544 0
-543 545 0
-544 545 0
543 544 -545 0
546 547 0
-546 547 0
450 -548 0
545 -548 0
547 -548 0
-450 -545 -547 548 0
-450 -549 0
545 -549 0
450 -545 549 0
-548 550 0
-549 550 0
548 549 -550 0
449 -551 0
550 -551 0
-449 -550 551 0
553 -554 0
545 -554 0
547 -554 0
-553 -545 -547 554 0
-553 -555 0
545 -555 0
553 -545 555 0
-554 556 0
-555 556 0
554 555 -556 0
557 558 0
-557 558 0
552 -559 0
556 -559 0
558 -559 0
-552 -556 -558 559 0
561 562 0
-561 562 0
560 -563 0
556 -563 0
562 -563 0
-560 -556 -562 563 0
-560 -564 0
556 -564 0
560 -556 564 0
-563 565 0
-564 565 0
563 564 -565 0
-552 -566 0
565 -566 0
552 -565 566 0
-559 567 0
-566 567 0
559 566 -567 0
-449 -568 0
567 -568 0
449 -567 568 0
-551 569 0
-568 569 0
551 568 -569 0
570 571 0
-570 571 0
448 -572 0
569 -572 0
571 -572 0
-448 -569 -571 572 0
-448 -573 0
569 -573 0
448 -569 573 0
-572 574 0
-573 574 0
572 573 -574 0
575 576 0
-575 576 0
447 -577 0
574 -577 0
576 -577 0
-447 -574 -576 577 0
579 580 0
-579 580 0
578 -581 0
574 -581 0
580 -581 0
-578 -574 -580 581 0
-578 -582 0
574 -582 0
578 -574 582 0
-581 583 0
-582 583 0
581 582 -583 0
-447 -584 0
583 -584 0
447 -583 584 0
-577 585 0
-584 585 0
577 584 -585 0
586 -588 0
587 -588 0
-586 -587 588 0
586 -589 0
-587 -589 0
-586 587 589 0
-588 590 0
-589 590 0
588 589 -590 0
590 -592 0
591 -592 0
-590 -591 592 0
590 -593 0
-591 -593 0
-590 591 593 0
-592 594 0
-593 594 0
592 593 -594 0
594 -597 0
-595 -597 0
596 -597 0
-594 595 -596 597 0
594 -598 0
-595 -598 0
-596 -598 0
-594 595 596 598 0
594 -600 0
595 -600 0
599 -600 0
-594 -595 -599 600 0
594 -601 0
595 -601 0
-599 -601 0
-594 -595 599 601 0
-597 602 0
-598 602 0
-600 602 0
-601 602 0
597 598 600 601 -602 0
602 -604 0
603 -604 0
-602 -603 604 0
602 -605 0
-603 -605 0
-602 603 605 0
-604 606 0
-605 606 0
604 605 -606 0
606 -608 0
607 -608 0
-606 -607 608 0
606 -610 0
-607 -610 0
609 -610 0
-606 607 -609 610 0
606 -612 0
-607 -612 0
-609 -612 0
611 -612 0
-606 607 609 -611 612 0
606 -614 0
-607 -614 0
-609 -614 0
-611 -614 0
613 -614 0
-606 607 609 611 -613 614 0
606 -617 0
-607 -617 0
-609 -617 0
-611 -617 0
-613 -617 0
615 -617 0
616 -617 0
-606 607 609 611 613 -615 -616 617 0
606 -618 0
-607 -618 0
-609 -618 0
-611 -618 0
-613 -618 0
615 -618 0
-616 -618 0
-606 607 609 611 613 -615 616 618 0
-617 619 0
-618 619 0
617 618 -619 0
619 -621 0
620 -621 0
-619 -620 621 0
619 -622 0
-620 -622 0
-619 620 622 0
-621 623 0
-622 623 0
621 622 -623 0
623 -625 0
624 -625 0
-623 -624 625 0
606 -627 0
-607 -627 0
-609 -627 0
-611 -627 0
-613 -627 0
-615 -627 0
626 -627 0
-606 607 609 611 613 615 -626 627 0
606 -628 0
-607 -628 0
-609 -628 0
-611 -628 0
-613 -628 0
-615 -628 0
-626 -628 0
-606 607 609 611 613 615 626 628 0
-627 629 0
-628 629 0
627 628 -629 0
629 -631 0
630 -631 0
-629 -630 631 0
629 -632 0
-630 -632 0
-629 630 632 0
-631 633 0
-632 633 0
631 632 -633 0
633 -635 0
634 -635 0
-633 -634 635 0
623 -636 0
-624 -636 0
-623 624 636 0
633 -637 0
-634 -637 0
-633 634 637 0
-625 638 0
-635 638 0
-636 638 0
-637 638 0
625 635 636 637 -638 0
638 -640 0
-639 -640 0
-638 639 640 0
638 -642 0
639 -642 0
641 -642 0
-638 -639 -641 642 0
638 -643 0
639 -643 0
-641 -643 0
-638 -639 641 643 0
586 644 0
-608 644 0
-610 644 0
-612 644 0
-614 644 0
-640 644 0
-642 644 0
-643 644 0
-586 608 610 612 614 640 642 643 -644 0
-645 646 0
645 646 0
-648 649 0
648 649 0
647 -650 0
649 -650 0
-647 -649 650 0
647 651 0
-650 651 0
-647 650 -651 0
585 -652 0
644 -652 0
646 -652 0
651 -652 0
-585 -644 -646 -651 652 0
-460 653 0
460 653 0
454 -654 0
653 -654 0
-454 -653 654 0
-654 655 0
454 655 0
654 -454 -655 0
655 -656 0
-469 -656 0
-655 469 656 0
655 -657 0
475 -657 0
476 -657 0
-655 -475 -476 657 0
655 -658 0
475 -658 0
-476 -658 0
478 -658 0
511 -658 0
-513 -658 0
-655 -475 476 -478 -511 513 658 0
655 -659 0
475 -659 0
-476 -659 0
478 -659 0
511 -659 0
513 -659 0
-655 -475 476 -478 -511 -513 659 0
655 -660 0
475 -660 0
-476 -660 0
478 -660 0
-511 -660 0
-655 -475 476 -478 511 660 0
655 -661 0
479 -661 0
-655 -479 661 0
655 -662 0
-479 -662 0
-655 479 662 0
-661 663 0
-662 663 0
661 662 -663 0
-482 664 0
-484 664 0
-487 664 0
-489 664 0
-491 664 0
-493 664 0
-495 664 0
-497 664 0
482 484 487 489 491 493 495 497 -664 0
663 -665 0
664 -665 0
-663 -664 665 0
663 -666 0
480 -666 0
481 -666 0
-483 -666 0
485 -666 0
-486 -666 0
488 -666 0
-494 -666 0
-496 -666 0
507 -666 0
-663 -480 -481 483 -485 486 -488 494 496 -507 666 0
-501 667 0
-502 667 0
501 502 -667 0
663 -668 0
667 -668 0
-663 -667 668 0
-665 669 0
-666 669 0
-668 669 0
665 666 668 -669 0
669 -670 0
475 -670 0
-476 -670 0
-478 -670 0
509 -670 0
-669 -475 476 478 -509 670 0
-658 671 0
-659 671 0
-660 671 0
-670 671 0
658 659 660 670 -671 0
671 -672 0
516 -672 0
517 -672 0
-671 -516 -517 672 0
671 -673 0
516 -673 0
-517 -673 0
-671 -516 517 673 0
-657 674 0
-672 674 0
-673 674 0
657 672 673 -674 0
674 -675 0
469 -675 0
473 -675 0
520 -675 0
522 -675 0
523 -675 0
-674 -469 -473 -520 -522 -523 675 0
674 -676 0
469 -676 0
473 -676 0
520 -676 0
522 -676 0
-523 -676 0
526 -676 0
-674 -469 -473 -520 -522 523 -526 676 0
-675 677 0
-676 677 0
675 676 -677 0
-530 678 0
-531 678 0
530 531 -678 0
677 -679 0
678 -679 0
-677 -678 679 0
-656 680 0
-679 680 0
656 679 -680 0
453 -681 0
680 -681 0
-453 -680 681 0
-453 -682 0
655 -682 0
453 -655 682 0
-681 683 0
-682 683 0
681 682 -683 0
683 -684 0
-536 -684 0
-683 536 684 0
683 -685 0
536 -685 0
-683 -536 685 0
-684 686 0
-685 686 0
684 685 -686 0
452 -687 0
686 -687 0
-452 -686 687 0
-452 -688 0
683 -688 0
452 -683 688 0
-687 689 0
-688 689 0
687 688 -689 0
689 -690 0
-541 -690 0
-689 541 690 0
689 -691 0
541 -691 0
-689 -541 691 0
-690 692 0
-691 692 0
690 691 -692 0
451 -693 0
692 -693 0
-451 -692 693 0
-451 -694 0
689 -694 0
451 -689 694 0
-693 695 0
-694 695 0
693 694 -695 0
695 -696 0
-546 -696 0
-695 546 696 0
695 -697 0
546 -697 0
-695 -546 697 0
-696 698 0
-697 698 0
696 697 -698 0
450 -699 0
698 -699 0
-450 -698 699 0
-450 -700 0
695 -700 0
450 -695 700 0
-699 701 0
-700 701 0
699 700 -701 0
449 -702 0
701 -702 0
-449 -701 702 0
553 -703 0
698 -703 0
-553 -698 703 0
-553 -704 0
695 -704 0
553 -695 704 0
-703 705 0
-704 705 0
703 704 -705 0
705 -706 0
-557 -706 0
-705 557 706 0
705 -707 0
557 -707 0
-705 -557 707 0
-706 708 0
-707 708 0
706 707 -708 0
552 -709 0
708 -709 0
-552 -708 709 0
705 -710 0
-561 -710 0
-705 561 710 0
705 -711 0
561 -711 0
-705 -561 711 0
-710 712 0
-711 712 0
710 711 -712 0
560 -713 0
712 -713 0
-560 -712 713 0
-560 -714 0
705 -714 0
560 -705 714 0
-713 715 0
-714 715 0
713 714 -715 0
-552 -716 0
715 -716 0
552 -715 716 0
-709 717 0
-716 717 0
709 716 -717 0
-449 -718 0
717 -718 0
449 -717 718 0
-702 719 0
-718 719 0
702 718 -719 0
719 -720 0
-570 -720 0
-719 570 720 0
719 -721 0
570 -721 0
-719 -570 721 0
-720 722 0
-721 722 0
720 721 -722 0
448 -723 0
722 -723 0
-448 -722 723 0
-448 -724 0
719 -724 0
448 -719 724 0
-723 725 0
-724 725 0
723 724 -725 0
725 -726 0
-575 -726 0
-725 575 726 0
725 -727 0
575 -727 0
-725 -575 727 0
-726 728 0
-727 728 0
726 727 -728 0
447 -729 0
728 -729 0
-447 -728 729 0
725 -730 0
-579 -730 0
-725 579 730 0
725 -731 0
579 -731 0
-725 -579 731 0
-730 732 0
-731 732 0
730 731 -732 0
578 -733 0
732 -733 0
-578 -732 733 0
-578 -734 0
725 -734 0
578 -725 734 0
-733 735 0
-734 735 0
733 734 -735 0
-447 -736 0
735 -736 0
447 -735 736 0
-729 737 0
-736 737 0
729 736 -737 0
737 -738 0
-586 -738 0
-737 586 738 0
737 -739 0
586 -739 0
587 -739 0
-737 -586 -587 739 0
737 -740 0
586 -740 0
-587 -740 0
-737 -586 587 740 0
-739 741 0
-740 741 0
739 740 -741 0
741 -742 0
590 -742 0
591 -742 0
-741 -590 -591 742 0
741 -743 0
590 -743 0
-591 -743 0
-741 -590 591 743 0
-742 744 0
-743 744 0
742 743 -744 0
744 -745 0
602 -745 0
603 -745 0
-744 -602 -603 745 0
744 -746 0
602 -746 0
-603 -746 0
-744 -602 603 746 0
-745 747 0
-746 747 0
745 746 -747 0
-608 748 0
-610 748 0
-612 748 0
-614 748 0
608 610 612 614 -748 0
747 -749 0
748 -749 0
-747 -748 749 0
747 -750 0
606 -750 0
-607 -750 0
-609 -750 0
-611 -750 0
-613 -750 0
-615 -750 0
626 -750 0
-747 -606 607 609 611 613 615 -626 750 0
747 -751 0
606 -751 0
-607 -751 0
-609 -751 0
-611 -751 0
-613 -751 0
-615 -751 0
-626 -751 0
-747 -606 607 609 611 613 615 626 751 0
-750 752 0
-751 752 0
750 751 -752 0
752 -753 0
629 -753 0
630 -753 0
-752 -629 -630 753 0
752 -754 0
629 -754 0
-630 -754 0
-752 -629 630 754 0
-753 755 0
-754 755 0
753 754 -755 0
755 -756 0
633 -756 0
634 -756 0
-755 -633 -634 756 0
755 -757 0
633 -757 0
-634 -757 0
-755 -633 634 757 0
747 -758 0
606 -758 0
-607 -758 0
-609 -758 0
-611 -758 0
-613 -758 0
615 -758 0
616 -758 0
-747 -606 607 609 611 613 -615 -616 758 0
747 -759 0
606 -759 0
-607 -759 0
-609 -759 0
-611 -759 0
-613 -759 0
615 -759 0
-616 -759 0
-747 -606 607 609 611 613 -615 616 759 0
-758 760 0
-759 760 0
758 759 -760 0
760 -761 0
619 -761 0
620 -761 0
-760 -619 -620 761 0
760 -762 0
619 -762 0
-620 -762 0
-760 -619 620 762 0
-761 763 0
-762 763 0
761 762 -763 0
763 -764 0
623 -764 0
624 -764 0
-763 -623 -624 764 0
763 -765 0
623 -765 0
-624 -765 0
-763 -623 624 765 0
-756 766 0
-757 766 0
-764 766 0
-765 766 0
756 757 764 765 -766 0
-642 767 0
-643 767 0
642 643 -767 0
-640 768 0
-767 768 0
640 767 -768 0
766 -769 0
768 -769 0
-766 -768 769 0
-738 770 0
-749 770 0
-769 770 0
738 749 769 -770 0
770 -771 0
647 -771 0
649 -771 0
-770 -647 -649 771 0
770 -772 0
-647 -772 0
-770 647 772 0
-771 773 0
-772 773 0
771 772 -773 0
-460 774 0
460 774 0
454 -775 0
774 -775 0
-454 -774 775 0
-775 776 0
454 776 0
775 -454 -776 0
776 -777 0
-469 -777 0
-776 469 777 0
776 -778 0
475 -778 0
476 -778 0
-776 -475 -476 778 0
776 -779 0
475 -779 0
-476 -779 0
478 -779 0
511 -779 0
-513 -779 0
-776 -475 476 -478 -511 513 779 0
776 -780 0
475 -780 0
-476 -780 0
478 -780 0
511 -780 0
513 -780 0
-776 -475 476 -478 -511 -513 780 0
776 -781 0
475 -781 0
-476 -781 0
478 -781 0
-511 -781 0
-776 -475 476 -478 511 781 0
776 -782 0
479 -782 0
-776 -479 782 0
776 -783 0
-479 -783 0
-776 479 783 0
-782 784 0
-783 784 0
782 783 -784 0
-482 785 0
-484 785 0
-487 785 0
-489 785 0
-491 785 0
-493 785 0
-495 785 0
-497 785 0
482 484 487 489 491 493 495 497 -785 0
784 -786 0
785 -786 0
-784 -785 786 0
784 -787 0
480 -787 0
481 -787 0
-483 -787 0
485 -787 0
-486 -787 0
488 -787 0
-494 -787 0
-496 -787 0
507 -787 0
-784 -480 -481 483 -485 486 -488 494 496 -507 787 0
784 -788 0
667 -788 0
-784 -667 788 0
-786 789 0
-787 789 0
-788 789 0
786 787 788 -789 0
789 -790 0
475 -790 0
-476 -790 0
-478 -790 0
509 -790 0
-789 -475 476 478 -509 790 0
-779 791 0
-780 791 0
-781 791 0
-790 791 0
779 780 781 790 -791 0
791 -792 0
516 -792 0
517 -792 0
-791 -516 -517 792 0
791 -793 0
516 -793 0
-517 -793 0
-791 -516 517 793 0
-778 794 0
-792 794 0
-793 794 0
778 792 793 -794 0
794 -795 0
469 -795 0
473 -795 0
520 -795 0
522 -795 0
523 -795 0
-794 -469 -473 -520 -522 -523 795 0
794 -796 0
469 -796 0
473 -796 0
520 -796 0
522 -796 0
-523 -796 0
526 -796 0
-794 -469 -473 -520 -522 523 -526 796 0
-795 797 0
-796 797 0
795 796 -797 0
797 -798 0
678 -798 0
-797 -678 798 0
-777 799 0
-798 799 0
777 798 -799 0
453 -800 0
799 -800 0
-453 -799 800 0
-453 -801 0
776 -801 0
453 -776 801 0
-800 802 0
-801 802 0
800 801 -802 0
802 -803 0
-536 -803 0
-802 536 803 0
802 -804 0
536 -804 0
-802 -536 804 0
-803 805 0
-804 805 0
803 804 -805 0
452 -806 0
805 -806 0
-452 -805 806 0
-452 -807 0
802 -807 0
452 -802 807 0
-806 808 0
-807 808 0
806 807 -808 0
808 -809 0
-541 -809 0
-808 541 809 0
808 -810 0
541 -810 0
-808 -541 810 0
-809 811 0
-810 811 0
809 810 -811 0
451 -812 0
811 -812 0
-451 -811 812 0
-451 -813 0
808 -813 0
451 -808 813 0
-812 814 0
-813 814 0
812 813 -814 0
814 -815 0
-546 -815 0
-814 546 815 0
814 -816 0
546 -816 0
-814 -546 816 0
-815 817 0
-816 817 0
815 816 -817 0
450 -818 0
817 -818 0
-450 -817 818 0
-450 -819 0
814 -819 0
450 -814 819 0
-818 820 0
-819 820 0
818 819 -820 0
449 -821 0
820 -821 0
-449 -820 821 0
553 -822 0
817 -822 0
-553 -817 822 0
-553 -823 0
814 -823 0
553 -814 823 0
-822 824 0
-823 824 0
822 823 -824 0
824 -825 0
-557 -825 0
-824 557 825 0
824 -826 0
557 -826 0
-824 -557 826 0
-825 827 0
-826 827 0
825 826 -827 0
552 -828 0
827 -828 0
-552 -827 828 0
824 -829 0
-561 -829 0
-824 561 829 0
824 -830 0
561 -830 0
-824 -561 830 0
-829 831 0
-830 831 0
829 830 -831 0
560 -832 0
831 -832 0
-560 -831 832 0
-560 -833 0
824 -833 0
560 -824 833 0
-832 834 0
-833 834 0
832 833 -834 0
-552 -835 0
834 -835 0
552 -834 835 0
-828 836 0
-835 836 0
828 835 -836 0
-449 -837 0
836 -837 0
449 -836 837 0
-821 838 0
-837 838 0
821 837 -838 0
838 -839 0
-570 -839 0
-838 570 839 0
838 -840 0
570 -840 0
-838 -570 840 0
-839 841 0
-840 841 0
839 840 -841 0
448 -842 0
841 -842 0
-448 -841 842 0
-448 -843 0
838 -843 0
448 -838 843 0
-842 844 0
-843 844 0
842 843 -844 0
844 -845 0
-575 -845 0
-844 575 845 0
844 -846 0
575 -846 0
-844 -575 846 0
-845 847 0
-846 847 0
845 846 -847 0
447 -848 0
847 -848 0
-447 -847 848 0
844 -849 0
-579 -849 0
-844 579 849 0
844 -850 0
579 -850 0
-844 -579 850 0
-849 851 0
-850 851 0
849 850 -851 0
578 -852 0
851 -852 0
-578 -851 852 0
-578 -853 0
844 -853 0
578 -844 853 0
-852 854 0
-853 854 0
852 853 -854 0
-447 -855 0
854 -855 0
447 -854 855 0
-848 856 0
-855 856 0
848 855 -856 0
856 -857 0
-586 -857 0
-856 586 857 0
856 -858 0
586 -858 0
587 -858 0
-856 -586 -587 858 0
856 -859 0
586 -859 0
-587 -859 0
-856 -586 587 859 0
-858 860 0
-859 860 0
858 859 -860 0
860 -861 0
590 -861 0
591 -861 0
-860 -590 -591 861 0
860 -862 0
590 -862 0
-591 -862 0
-860 -590 591 862 0
-861 863 0
-862 863 0
861 862 -863 0
863 -864 0
602 -864 0
603 -864 0
-863 -602 -603 864 0
863 -865 0
602 -865 0
-603 -865 0
-863 -602 603 865 0
-864 866 0
-865 866 0
864 865 -866 0
-608 867 0
-610 867 0
-612 867 0
-614 867 0
608 610 612 614 -867 0
866 -868 0
867 -868 0
-866 -867 868 0
866 -869 0
606 -869 0
-607 -869 0
-609 -869 0
-611 -869 0
-613 -869 0
-615 -869 0
626 -869 0
-866 -606 607 609 611 613 615 -626 869 0
866 -870 0
606 -870 0
-607 -870 0
-609 -870 0
-611 -870 0
-613 -870 0
-615 -870 0
-626 -870 0
-866 -606 607 609 611 613 615 626 870 0
-869 871 0
-870 871 0
869 870 -871 0
871 -872 0
629 -872 0
630 -872 0
-871 -629 -630 872 0
871 -873 0
629 -873 0
-630 -873 0
-871 -629 630 873 0
-872 874 0
-873 874 0
872 873 -874 0
874 -875 0
633 -875 0
634 -875 0
-874 -633 -634 875 0
874 -876 0
633 -876 0
-634 -876 0
-874 -633 634 876 0
866 -877 0
606 -877 0
-607 -877 0
-609 -877 0
-611 -877 0
-613 -877 0
615 -877 0
616 -877 0
-866 -606 607 609 611 613 -615 -616 877 0
866 -878 0
606 -878 0
-607 -878 0
-609 -878 0
-611 -878 0
-613 -878 0
615 -878 0
-616 -878 0
-866 -606 607 609 611 613 -615 616 878 0
-877 879 0
-878 879 0
877 878 -879 0
879 -880 0
619 -880 0
620 -880 0
-879 -619 -620 880 0
879 -881 0
619 -881 0
-620 -881 0
-879 -619 620 881 0
-880 882 0
-881 882 0
880 881 -882 0
882 -883 0
623 -883 0
624 -883 0
-882 -623 -624 883 0
882 -884 0
623 -884 0
-624 -884 0
-882 -623 624 884 0
-875 885 0
-876 885 0
-883 885 0
-884 885 0
875 876 883 884 -885 0
-640 886 0
-767 886 0
640 767 -886 0
885 -887 0
886 -887 0
-885 -886 887 0
-857 888 0
-868 888 0
-887 888 0
857 868 887 -888 0
888 -889 0
647 -889 0
649 -889 0
-888 -647 -649 889 0
888 -890 0
-647 -890 0
-888 647 890 0
-889 891 0
-890 891 0
889 890 -891 0
-773 -328 -892 0
773 328 -892 0
-773 328 892 0
773 -328 892 0
-891 -446 -893 0
891 446 -893 0
-891 446 893 0
891 -446 893 0
-892 -894 0
-893 -894 0
652 -894 0
892 893 -652 894 0
-207 894 0
